Route 1: 0 27 89 46 90 53 85 25 0
Route 2: 0 54 16 52 19 94 23 76 47 0
Route 3: 0 100 9 24 14 15 38 7 29 80 42 8 0
Route 4: 0 56 57 34 6 77 59 0
Route 5: 0 10 81 84 78 73 63 66 0
Route 6: 0 37 28 61 62 88 43 97 0
Route 7: 0 55 39 26 18 64 11 65 44 0
Route 8: 0 4 98 71 99 32 2 86 0
Route 9: 0 20 40 70 67 69 82 96 41 74 1 0
Route 10: 0 36 79 49 5 17 87 60 45 33 12 83 95 0
Route 11: 0 92 30 50 72 75 93 13 0
Route 12: 0 3 48 35 31 68 58 91 22 21 51 0
